
Log for 'C:\Users\narut\AppData\Local\Temp\713947baeef642a8828acad30d8f3990-pulp.lp' Clone_3 (V22.1.0.0) Thu Sep 18 17:32:33 2025

Tried aggregator 1 time.
LP Presolve eliminated 1017 rows and 59426 columns.
All rows and columns eliminated.
Presolve time = 0.02 sec. (16.93 ticks)

Iteration log . . .

Dual simplex solved model.


Log for 'C:\Users\narut\AppData\Local\Temp\b4287f554559415289ff8327ed8b4c1c-pulp.lp' Clone_3 (V22.1.0.0) Thu Sep 18 18:13:32 2025

Tried aggregator 1 time.
LP Presolve eliminated 1017 rows and 59426 columns.
All rows and columns eliminated.
Presolve time = 0.00 sec. (16.93 ticks)

Iteration log . . .

Dual simplex solved model.


Log for 'C:\Users\narut\AppData\Local\Temp\30118f60bc6e492bb6d8c63daf755be5-pulp.lp' Clone_3 (V22.1.0.0) Thu Sep 18 18:28:59 2025

Tried aggregator 1 time.
LP Presolve eliminated 1017 rows and 59426 columns.
All rows and columns eliminated.
Presolve time = 0.00 sec. (16.93 ticks)

Iteration log . . .

Dual simplex solved model.


Log for 'C:\Users\narut\AppData\Local\Temp\925310d39dd948d4857a060c345756a6-pulp.lp' Clone_3 (V22.1.0.0) Wed Sep 24 11:12:49 2025

Tried aggregator 1 time.
LP Presolve eliminated 1017 rows and 59426 columns.
All rows and columns eliminated.
Presolve time = 0.02 sec. (16.93 ticks)

Iteration log . . .

Dual simplex solved model.


Log for 'C:\Users\narut\AppData\Local\Temp\cbeac593be7a48ab9acbbc4a821d6eeb-pulp.lp' Clone_3 (V22.1.0.0) Wed Sep 24 11:44:56 2025

Tried aggregator 1 time.
LP Presolve eliminated 1017 rows and 59426 columns.
All rows and columns eliminated.
Presolve time = 0.02 sec. (16.93 ticks)

Iteration log . . .

Dual simplex solved model.


Log for 'C:\Users\narut\AppData\Local\Temp\5586a34484df40d596ee4d9a8c5df923-pulp.lp' Clone_3 (V22.1.0.0) Wed Sep 24 11:57:28 2025

Tried aggregator 1 time.
LP Presolve eliminated 1017 rows and 59426 columns.
All rows and columns eliminated.
Presolve time = 0.00 sec. (16.93 ticks)

Iteration log . . .

Dual simplex solved model.


Log for 'C:\Users\narut\AppData\Local\Temp\9f9d076254834a5c9a850f508ed674ee-pulp.lp' Clone_3 (V22.1.0.0) Wed Sep 24 12:06:36 2025

Tried aggregator 1 time.
LP Presolve eliminated 1017 rows and 59426 columns.
All rows and columns eliminated.
Presolve time = 0.02 sec. (16.93 ticks)

Iteration log . . .

Dual simplex solved model.


Log for 'C:\Users\narut\AppData\Local\Temp\fbf06ce206a947d3b2dd4216553fc465-pulp.lp' Clone_3 (V22.1.0.0) Wed Oct  8 19:09:06 2025

Tried aggregator 1 time.
LP Presolve eliminated 1017 rows and 59426 columns.
All rows and columns eliminated.
Presolve time = 0.02 sec. (16.93 ticks)

Iteration log . . .

Dual simplex solved model.


Log for 'C:\Users\narut\AppData\Local\Temp\3a69e65e6b154ca6bcb23154cb170e0d-pulp.lp' Clone_3 (V22.1.0.0) Wed Oct  8 19:35:18 2025

Tried aggregator 1 time.
LP Presolve eliminated 972 rows and 56482 columns.
All rows and columns eliminated.
Presolve time = 0.02 sec. (16.11 ticks)

Iteration log . . .

Dual simplex solved model.


Log for 'C:\Users\narut\AppData\Local\Temp\ae066d97046b41098c9642838e71eeda-pulp.lp' Clone_3 (V22.1.0.0) Wed Nov  5 16:06:59 2025


Log for 'C:\Users\narut\AppData\Local\Temp\7d820f3a9ba041829a49d22a1ece09ce-pulp.lp' Clone_3 (V22.1.0.0) Wed Nov  5 19:16:42 2025


Log for 'C:\Users\narut\AppData\Local\Temp\a7de238c53e84ff797487f8851e6b020-pulp.lp' Clone_3 (V22.1.0.0) Thu Apr 23 02:35:55 2026


Log for 'C:\Users\narut\AppData\Local\Temp\7f3696ce346d44d6bb506fd2f7a9247e-pulp.lp' Clone_3 (V22.1.0.0) Thu Apr 23 02:44:14 2026


Log for 'C:\Users\narut\AppData\Local\Temp\f33f1d4b0ae041ef9ca4c3395759c5d6-pulp.lp' Clone_3 (V22.1.0.0) Thu Apr 23 02:51:14 2026


Log for 'C:\Users\narut\AppData\Local\Temp\58482add523f4a4ea3943cda4b4dddb1-pulp.lp' Clone_3 (V22.1.0.0) Thu Apr 23 12:35:27 2026


Log for 'C:\Users\narut\AppData\Local\Temp\666232d8cc554f93b868a2372bcfd395-pulp.lp' Clone_3 (V22.1.0.0) Wed May  6 16:54:47 2026

